
List of user-set options:

                                    Name   Value                used
                   hessian_approximation = limited-memory        yes
                           linear_solver = mumps                 yes
                  ma57_automatic_scaling = yes                    no
                                max_iter = 2000                  yes
                             mu_strategy = adaptive              yes
                             output_file = brachistochroneIPOPTinfo.txt  yes
                             print_level = 5                     yes
                      print_user_options = yes                   yes
                                     tol = 1e-005                yes
This is Ipopt version 3.11.0, running with linear solver mumps.

Number of nonzeros in equality constraint Jacobian...:      818
Number of nonzeros in inequality constraint Jacobian.:        1
Number of nonzeros in Lagrangian Hessian.............:        0

Total number of variables............................:      159
                     variables with only lower bounds:        0
                variables with lower and upper bounds:      159
                     variables with only upper bounds:        0
Total number of equality constraints.................:      120
Total number of inequality constraints...............:        1
        inequality constraints with only lower bounds:        1
   inequality constraints with lower and upper bounds:        0
        inequality constraints with only upper bounds:        0

iter    objective    inf_pr   inf_du lg(mu)  ||d||  lg(rg) alpha_du alpha_pr  ls
   0 4.0000000e+000 5.42e+000 0.00e+000   0.0 0.00e+000    -  0.00e+000 0.00e+000   0
   1 1.5398193e-001 4.64e+000 1.67e+001   0.4 3.85e+000    -  9.75e-001 1.00e+000h  1
   2 1.3437879e-001 4.51e+000 2.13e+002  -5.5 4.24e+001    -  8.92e-002 2.95e-002h  1
   3 1.2641203e-001 4.43e+000 4.70e+002   1.1 6.83e+001    -  4.41e-001 1.77e-002h  1
   4 1.2515065e-001 4.40e+000 2.10e+003   1.5 2.93e+002    -  2.19e-002 7.70e-003h  1
   5 1.2624976e-001 4.39e+000 5.79e+003   2.8 6.43e+002    -  4.17e-002 2.65e-003h  1
   6 1.2727018e-001 4.38e+000 1.74e+004  -4.5 2.28e+003    -  1.57e-003 6.97e-004h  1
   7 1.2797834e-001 4.38e+000 3.17e+004   3.5 8.20e+003    -  1.40e-003 2.15e-004h  1
   8 1.2719029e-001 4.38e+000 7.14e+004   3.6 6.42e+003    -  7.44e-004 2.53e-004h  1
   9r1.2719029e-001 4.38e+000 9.99e+002   3.6 0.00e+000    -  0.00e+000 2.96e-007R  5
iter    objective    inf_pr   inf_du lg(mu)  ||d||  lg(rg) alpha_du alpha_pr  ls
  10r8.9845241e-001 1.29e+000 1.69e+003   1.5 1.08e+001    -  1.00e-001 6.22e-001f  1
  11 8.9561696e-001 1.28e+000 6.63e+002   0.8 6.91e+000    -  9.92e-001 2.96e-003h  1
  12 8.9296764e-001 1.28e+000 1.53e+004   2.7 3.44e+002    -  7.27e-002 3.12e-003h  1
  13 8.9168000e-001 1.28e+000 1.62e+004  -4.4 4.76e+001    -  2.46e-003 1.62e-003h  1
  14 8.6173316e-001 1.23e+000 8.45e+004   3.0 1.63e+002    -  1.00e+000 3.77e-002f  1
  15 8.6126731e-001 1.23e+000 9.77e+004  -3.1 9.18e+001    -  7.54e-003 6.68e-004h  1
  16 8.4789351e-001 1.21e+000 3.01e+005   3.8 3.11e+002    -  1.00e+000 1.93e-002f  1
  17 8.4361549e-001 1.20e+000 3.00e+005  -2.2 3.49e+001    -  5.17e-003 5.79e-003h  1
  18 8.3024353e-001 1.17e+000 2.96e+005   3.3 2.81e+002    -  7.11e-003 2.08e-002f  1
  19 8.2717989e-001 1.17e+000 2.83e+005   3.2 3.50e+002    -  5.11e-002 4.97e-003h  1
iter    objective    inf_pr   inf_du lg(mu)  ||d||  lg(rg) alpha_du alpha_pr  ls
  20 8.2195847e-001 1.16e+000 7.13e+005   3.2 3.81e+002    -  8.34e-002 9.01e-003h  1
  21 8.2069427e-001 1.15e+000 5.01e+007   4.2 1.92e+003    -  2.98e-001 2.24e-003h  1
  22 8.1990651e-001 1.15e+000 1.55e+010   4.7 6.52e+002    -  3.94e-001 1.25e-003h  1
  23 8.1988689e-001 1.15e+000 5.48e+012   4.7 5.82e+002    -  1.08e-002 3.02e-005h  1
  24 7.9042083e-001 5.81e-001 1.90e+012   4.7 5.55e-001    -  6.54e-001 1.00e+000f  1
  25r7.9042083e-001 5.81e-001 1.00e+003   4.7 0.00e+000    -  0.00e+000 8.09e-008R  2
  26r6.2259065e-001 2.88e-001 2.21e+001  -1.5 5.10e+001    -  9.78e-001 9.87e-001f  1
  27r6.2259065e-001 2.88e-001 9.52e+002   1.1 0.00e+000    -  0.00e+000 6.33e-008R  2
  28r4.3909255e-001 2.34e-001 9.57e+002  -0.1 1.51e+001    -  2.30e-001 3.58e-002f  1
  29 4.3807576e-001 2.34e-001 1.01e+003   1.1 1.33e+001    -  9.96e-001 1.95e-003h  1
iter    objective    inf_pr   inf_du lg(mu)  ||d||  lg(rg) alpha_du alpha_pr  ls
  30 4.3542035e-001 2.32e-001 1.59e+005   1.4 6.26e+000    -  1.00e+000 6.35e-003h  1
  31 4.3528734e-001 2.32e-001 4.71e+008   2.6 1.23e+002    -  1.00e+000 3.37e-004h  1
  32r4.3528734e-001 2.32e-001 9.99e+002   4.6 0.00e+000    -  0.00e+000 4.94e-007R  4
  33r4.1246610e-001 1.97e-001 2.23e+001  -1.8 3.93e+001    -  9.78e-001 9.88e-001f  1
  34r4.1246610e-001 1.97e-001 9.58e+002   0.9 0.00e+000    -  0.00e+000 2.87e-007R  4
  35r2.7031327e-001 1.72e-001 9.57e+002   1.0 1.59e+001    -  4.92e-001 4.09e-002f  1
  36 2.6863971e-001 1.72e-001 8.14e+003  -4.3 1.26e+002    -  3.50e-003 3.92e-003h  1
  37 2.5009822e-001 1.60e-001 6.93e+003   0.9 7.19e+000    -  1.00e+000 6.97e-002h  1
  38 2.3560569e-001 1.50e-001 5.98e+003   1.1 7.44e+000    -  1.00e+000 5.86e-002h  1
  39 2.2937677e-001 1.46e-001 1.88e+004   1.9 3.46e+001    -  9.53e-001 2.70e-002h  1
iter    objective    inf_pr   inf_du lg(mu)  ||d||  lg(rg) alpha_du alpha_pr  ls
  40 2.2864247e-001 1.46e-001 1.14e+006   3.0 1.45e+002    -  3.99e-001 3.23e-003h  1
  41 2.2790942e-001 1.45e-001 3.47e+008   4.1 9.09e+001    -  1.00e+000 3.21e-003h  1
  42 2.2788239e-001 1.45e-001 2.86e+012   4.7 2.45e+001    -  9.89e-001 1.19e-004h  1
  43r2.2788239e-001 1.45e-001 1.00e+003   4.7 0.00e+000    -  0.00e+000 3.55e-007R  3
  44r2.2013812e-001 1.34e-001 2.04e+001  -1.4 5.09e+001    -  9.80e-001 9.89e-001f  1
  45r1.7322203e-001 1.03e-001 7.78e+001   0.6 6.22e-001    -  9.94e-001 9.17e-001f  1
  46 1.7321456e-001 1.03e-001 7.81e+005  -4.3 7.88e+003    -  6.99e-005 2.50e-005h  1
  47 1.7317357e-001 1.03e-001 7.73e+006   3.7 3.74e+003    -  2.26e-005 1.63e-004f  1
  48 1.7150296e-001 1.02e-001 7.56e+006   1.6 3.61e+001    -  1.00e+000 9.31e-003f  1
  49 1.6646876e-001 9.93e-002 7.34e+006   1.8 5.28e+000    -  1.00e+000 2.94e-002h  1
iter    objective    inf_pr   inf_du lg(mu)  ||d||  lg(rg) alpha_du alpha_pr  ls
  50 1.6437467e-001 9.80e-002 7.17e+006   2.2 1.54e+001    -  1.00e+000 1.28e-002h  1
  51 1.6366922e-001 9.76e-002 1.59e+007   3.2 1.35e+002    -  1.00e+000 4.42e-003h  1
  52 1.6325878e-001 9.74e-002 4.43e+009   4.7 1.39e+002    -  1.00e+000 2.55e-003h  1
  53 1.6309893e-001 9.73e-002 2.15e+011   4.7 1.34e+002    -  4.86e-002 9.93e-004h  1
  54 1.6309731e-001 9.73e-002 3.31e+015   4.7 1.32e+002    -  1.54e-001 1.01e-005h  1
  55 1.6345017e-001 9.74e-002 3.29e+013   4.7 1.20e-002    -  9.90e-001 1.00e+000f  1
  56 2.9447059e+000 1.63e+001 8.69e+013   4.7 4.07e+001    -  2.44e-003 1.40e-001f  1
  57r2.9447059e+000 1.63e+001 1.00e+003   4.0 0.00e+000    -  0.00e+000 4.95e-007R  2
  58r2.4273855e+000 1.09e+001 3.38e+002   3.4 1.31e+001    -  1.00e+000 9.20e-001f  1
  59 2.2395254e+000 1.09e+001 5.64e+003   3.3 2.79e+002    -  1.00e+000 6.66e-003f  2
iter    objective    inf_pr   inf_du lg(mu)  ||d||  lg(rg) alpha_du alpha_pr  ls
  60 1.6343044e+000 7.24e+000 9.33e+003   2.6 3.94e+000    -  5.80e-001 3.58e-001h  1
  61 1.5247873e+000 5.67e+000 2.60e+004   1.9 5.99e+000    -  4.30e-001 2.17e-001h  1
  62 1.5522889e+000 4.57e+000 5.22e+004   1.9 7.57e+000    -  3.60e-001 1.94e-001h  1
  63 1.6492459e+000 3.70e+000 7.29e+004   1.9 6.32e+000    -  3.06e-001 1.91e-001h  1
  64 2.3093840e+000 2.34e+000 2.65e+004   1.9 6.77e+000    -  7.90e-002 8.87e-001h  1
  65 2.1630665e+000 2.59e-001 6.27e+003   1.9 3.54e+000    -  1.57e-001 1.00e+000f  1
  66 2.1856799e+000 1.57e-002 2.81e+002   1.9 1.38e+000    -  9.54e-001 1.00e+000f  1
  67 2.1853270e+000 1.72e-006 1.64e+001  -4.1 9.75e-003    -  9.88e-001 1.00e+000h  1
  68 2.1866553e+000 6.70e-006 9.63e-002  -2.1 1.01e-002    -  9.95e-001 1.00e+000h  1
  69 2.2652825e+000 2.00e-002 2.34e-003  -2.0 5.07e-001    -  1.00e+000 1.00e+000f  1
iter    objective    inf_pr   inf_du lg(mu)  ||d||  lg(rg) alpha_du alpha_pr  ls
  70 2.1076641e+000 4.19e-002 3.36e-002  -3.0 5.31e-001    -  9.82e-001 1.00e+000h  1
  71 2.0512070e+000 2.87e-002 1.35e-002  -2.9 9.65e-001    -  1.00e+000 8.96e-001h  1
  72 2.0335907e+000 1.18e-002 4.66e-003  -3.0 1.25e+000    -  1.00e+000 9.46e-001h  1
  73 2.0095784e+000 1.57e-002 2.30e-003  -3.7 1.31e+000    -  9.62e-001 1.00e+000h  1
  74 2.0048613e+000 1.96e-003 1.39e-003  -3.9 5.60e-001    -  1.00e+000 9.91e-001h  1
  75 2.0008522e+000 9.26e-004 6.45e-004  -4.8 4.62e-001    -  9.94e-001 1.00e+000h  1
  76 2.0001872e+000 8.05e-004 1.87e-003  -5.7 1.11e+000    -  1.00e+000 1.00e+000h  1
  77 2.0008217e+000 9.30e-004 9.82e-004  -4.6 1.19e+000    -  1.00e+000 8.90e-001h  1
  78 2.0007753e+000 1.60e-004 1.83e-004  -4.7 3.72e-001    -  1.00e+000 1.00e+000h  1
  79 2.0000718e+000 2.71e-004 3.74e-004  -5.8 4.63e-001    -  9.93e-001 1.00e+000h  1
iter    objective    inf_pr   inf_du lg(mu)  ||d||  lg(rg) alpha_du alpha_pr  ls
  80 2.0000186e+000 4.00e-005 3.05e-004  -6.5 2.46e-001    -  1.00e+000 1.00e+000h  1
  81 2.0000013e+000 1.67e-004 1.05e-003  -7.2 1.06e+000    -  1.00e+000 1.00e+000h  1
  82 1.9999991e+000 6.39e-005 9.77e-006  -8.9 6.54e-001    -  1.00e+000 1.00e+000h  1
  83 2.0000000e+000 1.82e-008 1.39e-008 -10.7 1.10e-002    -  1.00e+000 1.00e+000h  1

Number of Iterations....: 83

                                   (scaled)                 (unscaled)
Objective...............:  1.9999999810614095e+000   1.9999999810614095e+000
Dual infeasibility......:  1.3887091268593998e-008   1.3887091268593998e-008
Constraint violation....:  1.8224567521762935e-008   1.8224567521762935e-008
Complementarity.........:  3.8477515993226325e-010   3.8477515993226325e-010
Overall NLP error.......:  1.8224567521762935e-008   1.8224567521762935e-008


Number of objective function evaluations             = 108
Number of objective gradient evaluations             = 83
Number of equality constraint evaluations            = 108
Number of inequality constraint evaluations          = 108
Number of equality constraint Jacobian evaluations   = 91
Number of inequality constraint Jacobian evaluations = 91
Number of Lagrangian Hessian evaluations             = 0
Total CPU secs in IPOPT (w/o function evaluations)   =      0.370
Total CPU secs in NLP function evaluations           =      0.156

EXIT: Optimal Solution Found.
